Geographic Exponential Decay
20 74 87 113 189 36 216 300 276 286 99 21 76 35 95 60 237 150 194 311 219
p edge 320 645
e 0 13 12.0
e 0 108 7.0
e 0 248 6.0
e 0 193 4.0
e 0 131 6.0
e 1 69 1.0
e 2 226 7.0
e 2 207 11.0
e 2 305 11.0
e 2 292 1.0
e 2 230 9.0
e 3 231 3.0
e 3 266 4.0
e 4 46 1.0
e 4 162 3.0
e 5 273 5.0
e 5 262 2.0
e 6 291 5.0
e 6 111 3.0
e 7 120 1.0
e 8 77 5.0
e 8 208 1.0
e 9 173 7.0
e 9 261 6.0
e 9 205 13.0
e 9 179 14.0
e 9 272 24.0
e 10 281 2.0
e 10 76 5.0
e 11 145 18.0
e 11 111 20.0
e 11 264 1.0
e 11 220 17.0
e 11 141 1.0
e 11 8 15.0
e 11 107 40.0
e 11 71 34.0
e 11 103 24.0
e 12 185 5.0
e 13 55 1.0
e 14 203 3.0
e 15 253 1.0
e 16 3 1.0
e 17 108 1.0
e 18 300 15.0
e 19 114 21.0
e 20 98 5.0
e 21 66 98.0
e 21 253 93.0
e 21 293 33.0
e 21 52 25.0
e 21 53 39.0
e 21 317 68.0
e 21 56 60.0
e 21 306 62.0
e 21 256 3.0
e 21 139 25.0
e 21 67 95.0
e 21 43 50.0
e 21 260 64.0
e 21 137 35.0
e 21 91 55.0
e 21 19 27.0
e 21 17 5.0
e 22 132 2.0
e 23 98 5.0
e 24 273 2.0
e 25 12 4.0
e 25 274 2.0
e 26 211 1.0
e 26 23 1.0
e 27 45 2.0
e 28 229 4.0
e 29 83 2.0
e 30 20 2.0
e 30 258 16.0
e 30 288 19.0
e 30 256 1.0
e 30 218 1.0
e 31 256 1.0
e 31 282 6.0
e 32 124 9.0
e 32 12 19.0
e 32 256 13.0
e 32 10 22.0
e 32 263 15.0
e 33 53 1.0
e 34 86 9.0
e 34 175 9.0
e 34 31 1.0
e 35 80 70.0
e 35 305 64.0
e 35 270 37.0
e 35 61 25.0
e 35 143 50.0
e 35 39 24.0
e 35 241 10.0
e 35 50 46.0
e 35 125 25.0
e 35 223 92.0
e 35 76 89.0
e 35 251 61.0
e 35 7 45.0
e 35 242 6.0
e 35 8 86.0
e 35 313 24.0
e 35 34 17.0
e 36 92 3.0
e 36 139 56.0
e 36 281 98.0
e 36 88 14.0
e 36 150 43.0
e 36 145 52.0
e 36 70 73.0
e 36 158 80.0
e 36 255 65.0
e 36 96 8.0
e 36 51 43.0
e 36 277 23.0
e 36 157 77.0
e 36 291 43.0
e 36 238 50.0
e 36 310 67.0
e 36 225 7.0
e 37 178 5.0
e 37 285 5.0
e 37 216 17.0
e 38 207 3.0
e 40 23 3.0
e 41 53 1.0
e 42 10 4.0
e 42 102 3.0
e 44 144 3.0
e 46 67 4.0
e 47 161 12.0
e 48 312 1.0
e 49 271 12.0
e 49 141 20.0
e 50 113 93.0
e 54 174 2.0
e 55 291 3.0
e 57 228 5.0
e 58 221 5.0
e 59 135 2.0
e 59 306 2.0
e 60 130 20.0
e 60 37 10.0
e 60 26 81.0
e 60 118 35.0
e 60 30 83.0
e 60 181 38.0
e 60 289 95.0
e 60 246 48.0
e 60 127 75.0
e 60 48 21.0
e 60 123 88.0
e 60 237 10.0
e 60 168 20.0
e 60 272 71.0
e 60 56 44.0
e 60 189 52.0
e 60 207 88.0
e 61 206 24.0
e 62 225 2.0
e 63 87 20.0
e 63 134 1.0
e 63 240 14.0
e 63 136 4.0
e 63 96 16.0
e 64 49 10.0
e 64 4 10.0
e 64 121 2.0
e 65 184 1.0
e 65 0 10.0
e 67 147 21.0
e 67 54 10.0
e 67 19 2.0
e 68 99 65.0
e 68 229 5.0
e 70 188 2.0
e 70 16 23.0
e 70 280 7.0
e 70 138 11.0
e 71 170 6.0
e 72 132 1.0
e 73 223 3.0
e 74 56 73.0
e 74 272 59.0
e 74 62 35.0
e 74 80 22.0
e 74 81 45.0
e 74 6 62.0
e 74 132 58.0
e 74 154 65.0
e 74 30 6.0
e 74 204 37.0
e 74 99 93.0
e 74 111 18.0
e 74 153 40.0
e 74 79 36.0
e 74 316 57.0
e 74 155 74.0
e 74 240 98.0
e 75 199 8.0
e 76 209 36.0
e 76 70 45.0
e 76 53 75.0
e 76 117 52.0
e 76 288 28.0
e 76 278 92.0
e 76 63 5.0
e 76 86 20.0
e 76 254 59.0
e 76 298 74.0
e 76 69 99.0
e 76 89 62.0
e 76 119 85.0
e 76 259 35.0
e 76 33 89.0
e 77 235 2.0
e 77 204 3.0
e 78 269 1.0
e 78 222 6.0
e 78 56 9.0
e 79 152 1.0
e 79 300 56.0
e 82 257 1.0
e 84 48 1.0
e 85 180 7.0
e 85 284 19.0
e 85 35 7.0
e 85 234 22.0
e 85 278 19.0
e 87 248 98.0
e 87 285 27.0
e 87 302 85.0
e 87 270 17.0
e 87 49 32.0
e 87 132 26.0
e 87 27 1.0
e 87 158 12.0
e 87 111 100.0
e 87 30 83.0
e 87 245 88.0
e 87 160 88.0
e 87 177 36.0
e 87 148 55.0
e 87 155 91.0
e 87 181 34.0
e 89 185 1.0
e 90 150 22.0
e 92 293 9.0
e 92 251 12.0
e 93 3 12.0
e 93 119 11.0
e 93 266 11.0
e 94 116 1.0
e 95 310 25.0
e 95 136 14.0
e 95 35 10.0
e 95 172 67.0
e 95 213 49.0
e 95 235 33.0
e 95 269 93.0
e 95 120 80.0
e 95 19 64.0
e 95 229 25.0
e 95 79 36.0
e 95 165 80.0
e 95 90 71.0
e 95 55 2.0
e 95 232 71.0
e 95 14 4.0
e 95 211 4.0
e 97 219 24.0
e 97 211 1.0
e 97 114 7.0
e 99 211 4.0
e 99 155 94.0
e 99 49 40.0
e 99 153 40.0
e 99 37 53.0
e 99 236 42.0
e 99 146 19.0
e 99 86 76.0
e 99 250 47.0
e 99 311 36.0
e 99 77 54.0
e 99 136 77.0
e 99 156 66.0
e 99 209 36.0
e 99 251 94.0
e 100 263 5.0
e 100 52 1.0
e 101 96 1.0
e 101 275 2.0
e 102 116 3.0
e 104 57 2.0
e 105 149 3.0
e 105 144 4.0
e 106 297 1.0
e 109 46 2.0
e 110 139 8.0
e 110 252 1.0
e 112 6 5.0
e 113 215 31.0
e 113 54 5.0
e 113 82 34.0
e 113 101 70.0
e 113 175 54.0
e 113 156 37.0
e 113 34 43.0
e 113 72 88.0
e 113 148 79.0
e 113 40 41.0
e 113 305 48.0
e 113 251 2.0
e 113 143 22.0
e 113 92 55.0
e 113 153 39.0
e 113 22 82.0
e 114 50 14.0
e 114 85 4.0
e 114 272 11.0
e 115 120 1.0
e 121 27 2.0
e 122 14 1.0
e 122 164 6.0
e 123 181 5.0
e 126 143 3.0
e 126 313 3.0
e 126 108 8.0
e 128 98 20.0
e 128 233 39.0
e 128 134 3.0
e 128 116 21.0
e 128 69 25.0
e 129 189 1.0
e 129 234 6.0
e 133 58 4.0
e 133 219 30.0
e 135 66 1.0
e 137 55 1.0
e 138 154 3.0
e 140 271 8.0
e 140 105 6.0
e 140 213 12.0
e 141 51 22.0
e 141 145 5.0
e 141 189 86.0
e 142 309 2.0
e 150 183 38.0
e 150 141 69.0
e 150 147 100.0
e 150 187 40.0
e 150 196 11.0
e 150 286 58.0
e 150 109 6.0
e 150 136 24.0
e 150 162 90.0
e 150 275 33.0
e 150 254 25.0
e 150 6 40.0
e 150 98 6.0
e 150 291 81.0
e 150 78 63.0
e 151 269 2.0
e 152 201 2.0
e 159 134 2.0
e 161 291 1.0
e 161 37 24.0
e 161 195 5.0
e 161 181 17.0
e 163 22 2.0
e 166 180 10.0
e 166 61 9.0
e 166 64 1.0
e 167 145 1.0
e 167 222 15.0
e 167 103 8.0
e 167 264 20.0
e 167 228 1.0
e 169 201 1.0
e 170 48 1.0
e 170 120 5.0
e 171 305 2.0
e 176 101 4.0
e 179 26 1.0
e 182 64 28.0
e 182 222 45.0
e 182 96 37.0
e 182 39 49.0
e 182 112 8.0
e 182 55 19.0
e 182 152 10.0
e 182 46 18.0
e 182 4 32.0
e 186 0 5.0
e 188 258 5.0
e 189 251 67.0
e 189 59 54.0
e 189 220 19.0
e 189 199 85.0
e 189 10 29.0
e 189 151 35.0
e 189 116 34.0
e 189 173 74.0
e 189 114 29.0
e 189 174 33.0
e 189 156 26.0
e 189 50 35.0
e 189 61 72.0
e 189 72 31.0
e 190 58 1.0
e 191 249 5.0
e 191 240 7.0
e 192 93 12.0
e 194 118 75.0
e 194 148 37.0
e 194 271 76.0
e 194 38 89.0
e 194 177 71.0
e 194 79 25.0
e 194 181 84.0
e 194 42 82.0
e 194 199 49.0
e 194 122 52.0
e 194 117 23.0
e 194 143 33.0
e 194 195 51.0
e 194 128 16.0
e 194 81 48.0
e 194 179 33.0
e 194 304 99.0
e 197 297 2.0
e 198 8 4.0
e 198 34 9.0
e 198 162 5.0
e 200 288 1.0
e 200 135 3.0
e 202 135 5.0
e 202 150 40.0
e 203 68 4.0
e 203 262 8.0
e 206 2 36.0
e 206 140 16.0
e 206 24 49.0
e 206 18 10.0
e 206 7 44.0
e 206 272 5.0
e 206 306 20.0
e 206 68 32.0
e 208 123 10.0
e 208 248 1.0
e 209 273 7.0
e 210 11 45.0
e 212 172 1.0
e 214 208 1.0
e 215 164 9.0
e 215 85 1.0
e 216 222 82.0
e 216 179 52.0
e 216 180 58.0
e 216 101 64.0
e 216 295 9.0
e 216 76 93.0
e 216 38 25.0
e 216 267 58.0
e 216 7 97.0
e 216 29 72.0
e 216 257 67.0
e 216 77 38.0
e 216 178 27.0
e 216 146 8.0
e 216 157 100.0
e 216 217 61.0
e 217 54 5.0
e 217 51 11.0
e 219 29 90.0
e 219 235 15.0
e 219 206 81.0
e 219 36 44.0
e 219 9 72.0
e 219 115 4.0
e 219 22 38.0
e 219 316 77.0
e 219 142 18.0
e 219 262 14.0
e 219 14 37.0
e 219 194 5.0
e 219 242 90.0
e 219 171 77.0
e 219 156 2.0
e 221 278 4.0
e 223 230 2.0
e 224 113 61.0
e 226 243 1.0
e 226 271 18.0
e 227 26 4.0
e 227 203 12.0
e 233 121 36.0
e 233 193 17.0
e 233 137 15.0
e 233 248 48.0
e 233 15 24.0
e 233 50 23.0
e 233 281 10.0
e 233 162 8.0
e 234 79 1.0
e 237 11 35.0
e 237 238 61.0
e 237 170 28.0
e 237 57 90.0
e 237 122 83.0
e 237 191 12.0
e 237 163 9.0
e 237 308 38.0
e 237 263 64.0
e 237 28 63.0
e 237 76 10.0
e 237 200 38.0
e 237 306 44.0
e 237 31 66.0
e 237 173 64.0
e 237 121 34.0
e 239 226 3.0
e 239 88 4.0
e 240 180 14.0
e 240 291 17.0
e 241 280 1.0
e 244 46 18.0
e 244 214 20.0
e 244 9 16.0
e 244 236 23.0
e 244 202 19.0
e 246 58 9.0
e 246 75 11.0
e 247 194 4.0
e 247 197 5.0
e 247 269 1.0
e 252 259 5.0
e 255 57 5.0
e 260 66 1.0
e 265 229 1.0
e 265 90 7.0
e 265 287 1.0
e 268 160 2.0
e 271 35 38.0
e 274 275 2.0
e 276 133 16.0
e 276 140 68.0
e 276 160 23.0
e 276 159 19.0
e 276 306 51.0
e 276 112 36.0
e 276 161 43.0
e 276 23 60.0
e 276 25 75.0
e 276 83 67.0
e 276 78 13.0
e 276 241 83.0
e 276 119 55.0
e 276 152 50.0
e 276 313 11.0
e 276 268 99.0
e 276 38 54.0
e 279 186 3.0
e 279 51 2.0
e 283 64 6.0
e 283 0 5.0
e 286 1 32.0
e 286 221 6.0
e 286 97 13.0
e 286 253 67.0
e 286 267 38.0
e 286 9 65.0
e 286 72 42.0
e 286 285 13.0
e 286 90 13.0
e 286 102 4.0
e 286 43 3.0
e 286 257 87.0
e 286 262 68.0
e 286 27 19.0
e 286 91 2.0
e 286 280 47.0
e 287 165 6.0
e 287 140 5.0
e 289 36 70.0
e 290 86 2.0
e 294 59 6.0
e 296 276 32.0
e 298 42 6.0
e 298 171 8.0
e 299 102 5.0
e 300 232 68.0
e 300 180 47.0
e 300 73 81.0
e 300 299 31.0
e 300 77 92.0
e 300 203 49.0
e 300 137 87.0
e 300 107 46.0
e 300 31 2.0
e 300 158 97.0
e 300 62 5.0
e 300 91 79.0
e 300 201 93.0
e 300 47 17.0
e 300 150 6.0
e 301 168 2.0
e 303 65 1.0
e 304 179 5.0
e 304 73 6.0
e 307 259 4.0
e 308 146 1.0
e 310 174 3.0
e 311 91 88.0
e 311 290 86.0
e 311 71 63.0
e 311 223 93.0
e 311 275 83.0
e 311 182 43.0
e 311 25 22.0
e 311 197 64.0
e 311 139 77.0
e 311 212 51.0
e 311 33 72.0
e 311 171 26.0
e 311 152 51.0
e 311 235 60.0
e 311 84 27.0
e 311 300 25.0
e 312 36 73.0
e 314 268 1.0
e 314 78 24.0
e 314 84 1.0
e 314 1 6.0
e 314 63 12.0
e 315 11 10.0
e 316 59 18.0
e 316 183 16.0
e 316 161 1.0
e 318 74 16.0
e 319 229 3.0
